c clasp version 2.1.1
c Reading from p58.cnf
c Solving...
s SATISFIABLE

c Models        : 1+    
c Time          : 1.784s (Solving: 0.29s 1st Model: 0.29s Unsat: 0.00s)
c CPU Time      : 1.770s
c Choices       : 10407
c Conflicts     : 534
c Restarts      : 1      (Average: 534.00 Last: 377)

c Variables     : 231328 (Eliminated: 72344 Frozen:    0)
c Constraints   : 265131 (Binary: 64.7% Ternary: 34.0% Other:  1.3%)
c Lemmas        : 534    (Binary:  0.6% Ternary:  0.9% Other: 98.5%)
c   Conflict    : 534    (Average Length: 40.0) 
c   Loop        : 0      (Average Length: 0.0) 
c   Other       : 0      (Average Length: 0.0)
c   Deleted     : 0     
